r = [
0,2,6,14,5,2,1,7,14,2,12,0
];
p = [
0,29,3,15,24,7,9,15,16,9,10,0
];
e = [
0,14,2,19,7,7,20,7,7,10,4,0
];
d = [
0,115,140,118,135,146,93,154,130,121,125,162
];
d_bar = [
0,130,142,126,147,150,98,162,138,126,130,162
];
w = [
0,0.933333333,1,2.375,0.583333333,1.75,4,0.875,0.875,2,0.8,0
];
